150
[15,16,17,18,19,20,21,22,23,24,25,26,27,28,29,30,31,32,33,34,35,36,37,38,39,40,41,42,43,44,45,46,47,48,49,50,51,52,53,54,55,56,57,58,59,60,61,62,63,64,65,66,67,68,69,70,71,72,73,74,75,76,77,78,79,80,81,82,83,84,85,86,87,88,89,90,91,92,93,94,95,96,97,98,99,100,101,102,103,104,105]
[15,17,7,12,12,8,5,13,6,10,2,11,5,13,11,6,15,15,12,10,9,8,12,12,9,8,8,15,10,13,15,7,13,21,9,7,14,7,13,10,8,12,16,19,13,15,10,17,13,20,12,7,12,15,11,12,10,11,11,10,10,11,10,16,11,7,8,8,9,13,12,17,13,11,9,13,9,12,14,4,11,12,11,12,12,5,7,9,8,8,9]
